100
1000
618
617
614
614
610
609
601
589
588
586
586
583
575
568
563
560
552
548
547
535
527
520
519
514
511
511
509
509
505
502
491
481
474
471
459
446
443
425
416
413
403
398
397
396
396
392
387
386
382
367
359
352
332
331
322
321
311
306
289
281
264
256
255
244
243
241
219
215
214
206
204
199
196
194
192
187
183
183
183
179
177
176
175
173
173
169
160
154
126
94
87
86
81
72
65
63
54
47
41
36
